(set-logic ALL)
(declare-fun var0 () String)
(assert (str.in_re var0 (re.++ (re.* (re.union (str.to_re "000") (str.to_re "111"))) (re.++ (re.union (re.* (str.to_re "2")) (re.+ (str.to_re "3"))) (re.++ (re.+ (re.union (str.to_re "44") (str.to_re "555"))) (re.++ (re.union (re.union (str.to_re "66") (str.to_re "77")) (re.* (str.to_re "888"))) (re.++ (re.union (re.+ (str.to_re "9")) (re.union (str.to_re "aaa") (str.to_re "bbb"))) (re.++ (re.+ (re.+ (str.to_re "cc"))) (re.++ (re.+ (re.* (str.to_re "dd"))) (re.++ (re.union (re.+ (str.to_re "e")) (re.+ (str.to_re "f"))) (re.++ (re.+ (re.union (str.to_re "gg") (str.to_re "h"))) (re.++ (re.+ (re.union (str.to_re "i") (str.to_re "j"))) (re.++ (re.* (re.+ (str.to_re "k"))) (re.++ (re.+ (re.* (str.to_re "ll"))) (re.++ (re.union (re.* (str.to_re "mmm")) (re.union (str.to_re "nnn") (str.to_re "ooo"))) (re.++ (re.union (re.* (str.to_re "pp")) (re.* (str.to_re "qqq"))) (re.++ (re.* (re.* (str.to_re "rrr"))) (re.++ (re.union (re.+ (str.to_re "s")) (re.union (str.to_re "t") (str.to_re "uu"))) (re.++ (re.* (re.union (str.to_re "v") (str.to_re "w"))) (re.++ (re.union (re.union (str.to_re "x") (str.to_re "yy")) (re.* (str.to_re "zzz"))) (re.++ (re.union (re.union (str.to_re "AAA") (str.to_re "B")) (re.* (str.to_re "CCC"))) (re.++ (re.+ (re.* (str.to_re "DDD"))) (re.++ (re.+ (re.* (str.to_re "E"))) (re.++ (re.+ (re.+ (str.to_re "FF"))) (re.++ (re.union (re.union (str.to_re "GGG") (str.to_re "HHH")) (re.union (str.to_re "III") (str.to_re "JJJ"))) (re.++ (re.* (re.* (str.to_re "K"))) (re.++ (re.+ (re.* (str.to_re "LLL"))) (re.++ (re.union (re.* (str.to_re "MMM")) (re.* (str.to_re "NN"))) (re.++ (re.* (re.union (str.to_re "OOO") (str.to_re "P"))) (re.++ (re.union (re.* (str.to_re "QQQ")) (re.* (str.to_re "RRR"))) (re.++ (re.union (re.union (str.to_re "S") (str.to_re "T")) (re.union (str.to_re "UU") (str.to_re "VVV"))) (re.++ (re.* (re.union (str.to_re "WW") (str.to_re "XXX"))) (re.++ (re.+ (re.* (str.to_re "YYY"))) (re.++ (re.* (re.+ (str.to_re "ZZZ"))) (re.++ (re.+ (re.+ (str.to_re "!!"))) (re.++ (re.+ (re.union (str.to_re """""") (str.to_re "##"))) (re.++ (re.+ (re.* (str.to_re "$$$"))) (re.++ (re.union (re.* (str.to_re "%")) (re.+ (str.to_re "&&&"))) (re.++ (re.union (re.* (str.to_re "''")) (re.union (str.to_re "(((") (str.to_re "))"))) (re.++ (re.* (re.union (str.to_re "***") (str.to_re "+"))) (re.++ (re.+ (re.+ (str.to_re ",,"))) (re.++ (re.union (re.union (str.to_re "-") (str.to_re ".")) (re.* (str.to_re "/"))) (re.++ (re.union (re.union (str.to_re ":::") (str.to_re ";;;")) (re.union (str.to_re "<<<") (str.to_re "=="))) (re.++ (re.* (re.union (str.to_re ">") (str.to_re "?"))) (re.* (re.union (str.to_re "@") (str.to_re "[[[")))))))))))))))))))))))))))))))))))))))))))))))
(check-sat)